DATASET = "thpack2";
INSTANCE = "020";

WIDTH = 233;
HEIGHT = 220;
LENGTH = 587;

NO_OF_SHAPES = 5;
size = [|
  97,77,66 |
  81,69,69 |
  109,53,24 |
  98,33,20 |
  86,56,34 |
|];

verticality = [|
  1,1,1 |
  1,1,1 |
  0,0,1 |
  0,1,1 |
  0,1,1 |
|];

box_count = [
  24,
  23,
  24,
  20,
  29,
];
